# Objective value = 1.2435506375125553e-01
IOCost -0
CCost 5.3600000000000018e+03
RCost 3.6000000000000355e+01
PCost 524
DCx(rec1,rec2) 44
DCx(rec3,rec1) 1.9999999999999922e+00
DCy(rec1,rec2) 1.0000000000000526e+01
DCy(rec3,rec1) 2.9999999999999819e+01
DRes(rec1,CLB) 0
DRes(rec1,DSP) 1.5999999999999904e+01
DRes(rec1,BRAM) 8.0000000000000107e+00
DRes(rec2,CLB) 0
DRes(rec2,DSP) 0
DRes(rec2,BRAM) 8
DRes(rec3,CLB) 4.3876013933186186e-13
DRes(rec3,DSP) 3.9999999999999973e+00
DRes(rec3,BRAM) 4.4408920985006277e-15
DRes(rec4,CLB) 0
DRes(rec4,DSP) 0
DRes(rec4,BRAM) 0
w(rec1) 27
w(rec2) 5
w(rec3) 11
w(rec4) 4
a(rec1) 2
a(rec2) 3
a(rec3) 1
a(rec4) 2
x(rec1) 11
Cx(rec1) 50
x(rec2) 0
Cx(rec2) 6
x(rec3) 18
Cx(rec3) 48
x(rec4) 6
Cx(rec4) 17
y(rec1) 3
Cy(rec1) 5.9999999999999730e+01
y(rec2) 3
Cy(rec2) 7.0000000000000256e+01
y(rec3) 2.0000000000000004e+00
Cy(rec3) 2.9999999999999911e+01
y(rec4) 3
Cy(rec4) 5.9999999999999730e+01
DCx(rec1,rec3) 1.9999999999999922e+00
DCx(rec1,rec4) 33
DCx(rec2,rec1) 44
DCx(rec2,rec3) 42
DCx(rec2,rec4) 11
DCx(rec3,rec2) 42
DCx(rec3,rec4) 31
DCx(rec4,rec1) 33
DCx(rec4,rec2) 11
DCx(rec4,rec3) 31
absX(rec1,rec2) 0
absX(rec1,rec3) 0
absX(rec1,rec4) 0
absX(rec2,rec3) 1
absX(rec2,rec4) 1
absX(rec3,rec4) 0
DCy(rec1,rec3) 2.9999999999999819e+01
DCy(rec1,rec4) 0
DCy(rec2,rec1) 1.0000000000000526e+01
DCy(rec2,rec3) 4.0000000000000341e+01
DCy(rec2,rec4) 1.0000000000000526e+01
DCy(rec3,rec2) 4.0000000000000341e+01
DCy(rec3,rec4) 2.9999999999999261e+01
DCy(rec4,rec1) 0
DCy(rec4,rec2) 1.0000000000000526e+01
DCy(rec4,rec3) 2.9999999999999261e+01
absY(rec1,rec2) 1
absY(rec1,rec3) 0
absY(rec1,rec4) 0
absY(rec2,rec3) 0
absY(rec2,rec4) 0
absY(rec3,rec4) 1
DBx(rec1,rec2) 12
DBx(rec1,rec3) 0
DBx(rec1,rec4) 2
DBx(rec2,rec1) 12
DBx(rec2,rec3) 26
DBx(rec2,rec4) 2
DBx(rec3,rec1) 0
DBx(rec3,rec2) 26
DBx(rec3,rec4) 16
DBx(rec4,rec1) 2
DBx(rec4,rec2) 2
DBx(rec4,rec3) 16
DBy(rec1,rec2) 0
DBy(rec1,rec3) 0
DBy(rec1,rec4) 0
DBy(rec2,rec1) 0
DBy(rec2,rec3) 0
DBy(rec2,rec4) 0
DBy(rec3,rec1) 0
DBy(rec3,rec2) 0
DBy(rec3,rec4) 0
DBy(rec4,rec1) 0
DBy(rec4,rec2) 0
DBy(rec4,rec3) 0
h(rec1,1) 0
h(rec1,2) 0
h(rec1,3) 1
h(rec1,4) 1
h(rec1,5) 0
h(rec1,6) 0
h(rec1,7) 0
h(rec2,1) 0
h(rec2,2) 0
h(rec2,3) 1
h(rec2,4) 1
h(rec2,5) 1
h(rec2,6) 0
h(rec2,7) 0
h(rec3,1) 0
h(rec3,2) 1
h(rec3,3) 0
h(rec3,4) 0
h(rec3,5) 0
h(rec3,6) 0
h(rec3,7) 0
h(rec4,1) 0
h(rec4,2) 0
h(rec4,3) 1
h(rec4,4) 1
h(rec4,5) 0
h(rec4,6) 0
h(rec4,7) 0
y2(rec1) 4
h(rec1,8) 0
y2(rec2) 5
h(rec2,8) 0
y2(rec3) 2.0000000000000067e+00
h(rec3,8) 0
y2(rec4) 4
h(rec4,8) 0
g1(rec1,rec2) 1
g1(rec1,rec3) 1
g1(rec1,rec4) 1
g1(rec2,rec3) 1
g1(rec2,rec4) 0
g1(rec3,rec4) 1
k1(rec1,por2) 0
k1(rec1,por3) 1
k1(rec1,por4) 1
k1(rec1,por5) 1
k1(rec1,por6) 1
k1(rec1,por7) 1
k1(rec1,por8) 1
k1(rec1,por9) 1
k1(rec1,por10) 0
k1(rec1,por11) 0
k1(rec1,por12) 0
k1(rec1,por13) 0
k1(rec1,por14) 0
k1(rec1,por15) 0
k1(rec2,por2) 1
k1(rec2,por3) 1
k1(rec2,por4) 0
k1(rec2,por5) 0
k1(rec2,por6) 0
k1(rec2,por7) 0
k1(rec2,por8) 0
k1(rec2,por9) 0
k1(rec2,por10) 0
k1(rec2,por11) 0
k1(rec2,por12) 0
k1(rec2,por13) 0
k1(rec2,por14) 0
k1(rec2,por15) 0
k1(rec3,por2) 0
k1(rec3,por3) 0
k1(rec3,por4) 0
k1(rec3,por5) 0
k1(rec3,por6) 1
k1(rec3,por7) 1
k1(rec3,por8) 1
k1(rec3,por9) 1
k1(rec3,por10) 0
k1(rec3,por11) 0
k1(rec3,por12) 0
k1(rec3,por13) 0
k1(rec3,por14) 0
k1(rec3,por15) 0
k1(rec4,por2) 0
k1(rec4,por3) 1
k1(rec4,por4) 0
k1(rec4,por5) 0
k1(rec4,por6) 0
k1(rec4,por7) 0
k1(rec4,por8) 0
k1(rec4,por9) 0
k1(rec4,por10) 0
k1(rec4,por11) 0
k1(rec4,por12) 0
k1(rec4,por13) 0
k1(rec4,por14) 0
k1(rec4,por15) 0
k1(rec1,por1) 0
k1(rec2,por1) 1
k1(rec3,por1) 0
k1(rec4,por1) 0
l(rec1,por1,1) 8.8817841970012563e-16
l(rec1,por1,2) 8.8817841970012563e-16
l(rec1,por1,3) 8.8817841970012563e-16
l(rec1,por1,4) 8.8817841970012563e-16
l(rec1,por1,5) 8.8817841970012563e-16
l(rec1,por1,6) 8.8817841970012563e-16
l(rec1,por1,7) 8.8817841970012563e-16
l(rec1,por1,8) 8.8817841970012563e-16
l(rec1,por2,1) 2.2204460492503141e-16
l(rec1,por2,2) 0
l(rec1,por2,3) 0
l(rec1,por2,4) 0
l(rec1,por2,5) 0
l(rec1,por2,6) 0
l(rec1,por2,7) 0
l(rec1,por2,8) 0
l(rec1,por3,1) 1.7763568394002513e-15
l(rec1,por3,2) 0
l(rec1,por3,3) 4
l(rec1,por3,4) 4
l(rec1,por3,5) 0
l(rec1,por3,6) 0
l(rec1,por3,7) 0
l(rec1,por3,8) 0
l(rec1,por4,1) 2.2204460492503141e-16
l(rec1,por4,2) 0
l(rec1,por4,3) 1.0000000000000004e+00
l(rec1,por4,4) 1.0000000000000004e+00
l(rec1,por4,5) 0
l(rec1,por4,6) 0
l(rec1,por4,7) 0
l(rec1,por4,8) 0
l(rec1,por5,1) 4.4408920985006281e-16
l(rec1,por5,2) 0
l(rec1,por5,3) 2.0000000000000009e+00
l(rec1,por5,4) 2.0000000000000009e+00
l(rec1,por5,5) 0
l(rec1,por5,6) 0
l(rec1,por5,7) 0
l(rec1,por5,8) 0
l(rec1,por6,1) 2.2204460492503141e-16
l(rec1,por6,2) 0
l(rec1,por6,3) 9.9999999999999478e-01
l(rec1,por6,4) 9.9999999999999301e-01
l(rec1,por6,5) 0
l(rec1,por6,6) 0
l(rec1,por6,7) 0
l(rec1,por6,8) 0
l(rec1,por7,1) 1.7763568394002513e-15
l(rec1,por7,2) 0
l(rec1,por7,3) 8.0000000000000036e+00
l(rec1,por7,4) 8.0000000000000036e+00
l(rec1,por7,5) 0
l(rec1,por7,6) 0
l(rec1,por7,7) 0
l(rec1,por7,8) 0
l(rec1,por8,1) 2.2204460492503141e-16
l(rec1,por8,2) 0
l(rec1,por8,3) 1
l(rec1,por8,4) 1
l(rec1,por8,5) 0
l(rec1,por8,6) 0
l(rec1,por8,7) 0
l(rec1,por8,8) 0
l(rec1,por9,1) 3.5527136788005025e-15
l(rec1,por9,2) 0
l(rec1,por9,3) 1.0999999999999993e+01
l(rec1,por9,4) 1.0999999999999995e+01
l(rec1,por9,5) 0
l(rec1,por9,6) 0
l(rec1,por9,7) 0
l(rec1,por9,8) 0
l(rec1,por10,1) 2.2204460492503141e-16
l(rec1,por10,2) 0
l(rec1,por10,3) 0
l(rec1,por10,4) 0
l(rec1,por10,5) 0
l(rec1,por10,6) 0
l(rec1,por10,7) 0
l(rec1,por10,8) 0
l(rec1,por11,1) 1.7763568394002513e-15
l(rec1,por11,2) 0
l(rec1,por11,3) 0
l(rec1,por11,4) 0
l(rec1,por11,5) 0
l(rec1,por11,6) 0
l(rec1,por11,7) 0
l(rec1,por11,8) 0
l(rec1,por12,1) 2.2204460492503141e-16
l(rec1,por12,2) 0
l(rec1,por12,3) 0
l(rec1,por12,4) 0
l(rec1,por12,5) 0
l(rec1,por12,6) 0
l(rec1,por12,7) 0
l(rec1,por12,8) 0
l(rec1,por13,1) 8.8817841970012563e-16
l(rec1,por13,2) 0
l(rec1,por13,3) 0
l(rec1,por13,4) 0
l(rec1,por13,5) 0
l(rec1,por13,6) 0
l(rec1,por13,7) 0
l(rec1,por13,8) 0
l(rec1,por14,1) 2.2204460492503141e-16
l(rec1,por14,2) 0
l(rec1,por14,3) 0
l(rec1,por14,4) 0
l(rec1,por14,5) 0
l(rec1,por14,6) 0
l(rec1,por14,7) 0
l(rec1,por14,8) 0
l(rec1,por15,1) 8.8817841970012563e-16
l(rec1,por15,2) 0
l(rec1,por15,3) 0
l(rec1,por15,4) 0
l(rec1,por15,5) 0
l(rec1,por15,6) 0
l(rec1,por15,7) 0
l(rec1,por15,8) 0
l(rec2,por1,1) 0
l(rec2,por1,2) 0
l(rec2,por1,3) 4
l(rec2,por1,4) 4
l(rec2,por1,5) 4
l(rec2,por1,6) 0
l(rec2,por1,7) 0
l(rec2,por1,8) 0
l(rec2,por2,1) 0
l(rec2,por2,2) 0
l(rec2,por2,3) 1
l(rec2,por2,4) 1
l(rec2,por2,5) 1
l(rec2,por2,6) 0
l(rec2,por2,7) 0
l(rec2,por2,8) 0
l(rec2,por3,1) 0
l(rec2,por3,2) 0
l(rec2,por3,3) 9.9999999999999978e-01
l(rec2,por3,4) 9.9999999999999978e-01
l(rec2,por3,5) 9.9999999999999978e-01
l(rec2,por3,6) 0
l(rec2,por3,7) 0
l(rec2,por3,8) 0
l(rec2,por4,1) 0
l(rec2,por4,2) 0
l(rec2,por4,3) 0
l(rec2,por4,4) 0
l(rec2,por4,5) 0
l(rec2,por4,6) 0
l(rec2,por4,7) 0
l(rec2,por4,8) 0
l(rec2,por5,1) 0
l(rec2,por5,2) 0
l(rec2,por5,3) 0
l(rec2,por5,4) 0
l(rec2,por5,5) 0
l(rec2,por5,6) 0
l(rec2,por5,7) 0
l(rec2,por5,8) 0
l(rec2,por6,1) 0
l(rec2,por6,2) 0
l(rec2,por6,3) 0
l(rec2,por6,4) 0
l(rec2,por6,5) 0
l(rec2,por6,6) 0
l(rec2,por6,7) 0
l(rec2,por6,8) 0
l(rec2,por7,1) 0
l(rec2,por7,2) 0
l(rec2,por7,3) 0
l(rec2,por7,4) 0
l(rec2,por7,5) 0
l(rec2,por7,6) 0
l(rec2,por7,7) 0
l(rec2,por7,8) 0
l(rec2,por8,1) 0
l(rec2,por8,2) 0
l(rec2,por8,3) 0
l(rec2,por8,4) 0
l(rec2,por8,5) 0
l(rec2,por8,6) 0
l(rec2,por8,7) 0
l(rec2,por8,8) 0
l(rec2,por9,1) 0
l(rec2,por9,2) 0
l(rec2,por9,3) 0
l(rec2,por9,4) 0
l(rec2,por9,5) 0
l(rec2,por9,6) 0
l(rec2,por9,7) 0
l(rec2,por9,8) 0
l(rec2,por10,1) 0
l(rec2,por10,2) 0
l(rec2,por10,3) 0
l(rec2,por10,4) 0
l(rec2,por10,5) 0
l(rec2,por10,6) 0
l(rec2,por10,7) 0
l(rec2,por10,8) 0
l(rec2,por11,1) 0
l(rec2,por11,2) 0
l(rec2,por11,3) 0
l(rec2,por11,4) 0
l(rec2,por11,5) 0
l(rec2,por11,6) 0
l(rec2,por11,7) 0
l(rec2,por11,8) 0
l(rec2,por12,1) 0
l(rec2,por12,2) 0
l(rec2,por12,3) 0
l(rec2,por12,4) 0
l(rec2,por12,5) 0
l(rec2,por12,6) 0
l(rec2,por12,7) 0
l(rec2,por12,8) 0
l(rec2,por13,1) 0
l(rec2,por13,2) 0
l(rec2,por13,3) 0
l(rec2,por13,4) 0
l(rec2,por13,5) 0
l(rec2,por13,6) 0
l(rec2,por13,7) 0
l(rec2,por13,8) 0
l(rec2,por14,1) 0
l(rec2,por14,2) 0
l(rec2,por14,3) 0
l(rec2,por14,4) 0
l(rec2,por14,5) 0
l(rec2,por14,6) 0
l(rec2,por14,7) 0
l(rec2,por14,8) 0
l(rec2,por15,1) 0
l(rec2,por15,2) 0
l(rec2,por15,3) 0
l(rec2,por15,4) 0
l(rec2,por15,5) 0
l(rec2,por15,6) 0
l(rec2,por15,7) 0
l(rec2,por15,8) 0
l(rec3,por1,1) 8.8817841970012563e-16
l(rec3,por1,2) 8.8817841970012563e-16
l(rec3,por1,3) 8.8817841970012563e-16
l(rec3,por1,4) 8.8817841970012563e-16
l(rec3,por1,5) 8.8817841970012563e-16
l(rec3,por1,6) 8.8817841970012563e-16
l(rec3,por1,7) 8.8817841970012563e-16
l(rec3,por1,8) 8.8817841970012563e-16
l(rec3,por2,1) 0
l(rec3,por2,2) 0
l(rec3,por2,3) 0
l(rec3,por2,4) 0
l(rec3,por2,5) 0
l(rec3,por2,6) 0
l(rec3,por2,7) 0
l(rec3,por2,8) 2.2204460492503141e-16
l(rec3,por3,1) 0
l(rec3,por3,2) 0
l(rec3,por3,3) 0
l(rec3,por3,4) 0
l(rec3,por3,5) 0
l(rec3,por3,6) 0
l(rec3,por3,7) 0
l(rec3,por3,8) 1.7763568394002513e-15
l(rec3,por4,1) 0
l(rec3,por4,2) 0
l(rec3,por4,3) 0
l(rec3,por4,4) 0
l(rec3,por4,5) 0
l(rec3,por4,6) 0
l(rec3,por4,7) 0
l(rec3,por4,8) 2.2204460492503141e-16
l(rec3,por5,1) 0
l(rec3,por5,2) 0
l(rec3,por5,3) 0
l(rec3,por5,4) 0
l(rec3,por5,5) 0
l(rec3,por5,6) 0
l(rec3,por5,7) 0
l(rec3,por5,8) 4.4408920985006281e-16
l(rec3,por6,1) 0
l(rec3,por6,2) 9.9999999999999944e-01
l(rec3,por6,3) 0
l(rec3,por6,4) 0
l(rec3,por6,5) 0
l(rec3,por6,6) 0
l(rec3,por6,7) 0
l(rec3,por6,8) 2.2204460492503141e-16
l(rec3,por7,1) 0
l(rec3,por7,2) 8.0000000000000036e+00
l(rec3,por7,3) 0
l(rec3,por7,4) 0
l(rec3,por7,5) 0
l(rec3,por7,6) 0
l(rec3,por7,7) 0
l(rec3,por7,8) 1.7763568394002513e-15
l(rec3,por8,1) 0
l(rec3,por8,2) 1
l(rec3,por8,3) 0
l(rec3,por8,4) 0
l(rec3,por8,5) 0
l(rec3,por8,6) 0
l(rec3,por8,7) 0
l(rec3,por8,8) 2.2204460492503141e-16
l(rec3,por9,1) 0
l(rec3,por9,2) 1.9999999999999967e+00
l(rec3,por9,3) 0
l(rec3,por9,4) 0
l(rec3,por9,5) 0
l(rec3,por9,6) 0
l(rec3,por9,7) 0
l(rec3,por9,8) 3.5527136788005025e-15
l(rec3,por10,1) 0
l(rec3,por10,2) 0
l(rec3,por10,3) 0
l(rec3,por10,4) 0
l(rec3,por10,5) 0
l(rec3,por10,6) 0
l(rec3,por10,7) 0
l(rec3,por10,8) 2.2204460492503141e-16
l(rec3,por11,1) 0
l(rec3,por11,2) 0
l(rec3,por11,3) 0
l(rec3,por11,4) 0
l(rec3,por11,5) 0
l(rec3,por11,6) 0
l(rec3,por11,7) 0
l(rec3,por11,8) 1.7763568394002513e-15
l(rec3,por12,1) 0
l(rec3,por12,2) 0
l(rec3,por12,3) 0
l(rec3,por12,4) 0
l(rec3,por12,5) 0
l(rec3,por12,6) 0
l(rec3,por12,7) 0
l(rec3,por12,8) 2.2204460492503141e-16
l(rec3,por13,1) 0
l(rec3,por13,2) 0
l(rec3,por13,3) 0
l(rec3,por13,4) 0
l(rec3,por13,5) 0
l(rec3,por13,6) 0
l(rec3,por13,7) 0
l(rec3,por13,8) 8.8817841970012563e-16
l(rec3,por14,1) 0
l(rec3,por14,2) 0
l(rec3,por14,3) 0
l(rec3,por14,4) 0
l(rec3,por14,5) 0
l(rec3,por14,6) 0
l(rec3,por14,7) 0
l(rec3,por14,8) 2.2204460492503141e-16
l(rec3,por15,1) 0
l(rec3,por15,2) 0
l(rec3,por15,3) 0
l(rec3,por15,4) 0
l(rec3,por15,5) 0
l(rec3,por15,6) 0
l(rec3,por15,7) 0
l(rec3,por15,8) 8.8817841970012563e-16
l(rec4,por1,1) 0
l(rec4,por1,2) 0
l(rec4,por1,3) 0
l(rec4,por1,4) 0
l(rec4,por1,5) 0
l(rec4,por1,6) 0
l(rec4,por1,7) 0
l(rec4,por1,8) 0
l(rec4,por2,1) 0
l(rec4,por2,2) 0
l(rec4,por2,3) 0
l(rec4,por2,4) 0
l(rec4,por2,5) 0
l(rec4,por2,6) 0
l(rec4,por2,7) 0
l(rec4,por2,8) 0
l(rec4,por3,1) 0
l(rec4,por3,2) 0
l(rec4,por3,3) 5.0000000000000213e+00
l(rec4,por3,4) 5.0000000000000213e+00
l(rec4,por3,5) 0
l(rec4,por3,6) 0
l(rec4,por3,7) 0
l(rec4,por3,8) 0
l(rec4,por4,1) 0
l(rec4,por4,2) 0
l(rec4,por4,3) 0
l(rec4,por4,4) 0
l(rec4,por4,5) 0
l(rec4,por4,6) 0
l(rec4,por4,7) 0
l(rec4,por4,8) 0
l(rec4,por5,1) 0
l(rec4,por5,2) 0
l(rec4,por5,3) 0
l(rec4,por5,4) 0
l(rec4,por5,5) 0
l(rec4,por5,6) 0
l(rec4,por5,7) 0
l(rec4,por5,8) 0
l(rec4,por6,1) 0
l(rec4,por6,2) 0
l(rec4,por6,3) 0
l(rec4,por6,4) 0
l(rec4,por6,5) 0
l(rec4,por6,6) 0
l(rec4,por6,7) 0
l(rec4,por6,8) 0
l(rec4,por7,1) 0
l(rec4,por7,2) 0
l(rec4,por7,3) 0
l(rec4,por7,4) 0
l(rec4,por7,5) 0
l(rec4,por7,6) 0
l(rec4,por7,7) 0
l(rec4,por7,8) 0
l(rec4,por8,1) 0
l(rec4,por8,2) 0
l(rec4,por8,3) 0
l(rec4,por8,4) 0
l(rec4,por8,5) 0
l(rec4,por8,6) 0
l(rec4,por8,7) 0
l(rec4,por8,8) 0
l(rec4,por9,1) 0
l(rec4,por9,2) 0
l(rec4,por9,3) 0
l(rec4,por9,4) 0
l(rec4,por9,5) 0
l(rec4,por9,6) 0
l(rec4,por9,7) 0
l(rec4,por9,8) 0
l(rec4,por10,1) 0
l(rec4,por10,2) 0
l(rec4,por10,3) 0
l(rec4,por10,4) 0
l(rec4,por10,5) 0
l(rec4,por10,6) 0
l(rec4,por10,7) 0
l(rec4,por10,8) 0
l(rec4,por11,1) 0
l(rec4,por11,2) 0
l(rec4,por11,3) 0
l(rec4,por11,4) 0
l(rec4,por11,5) 0
l(rec4,por11,6) 0
l(rec4,por11,7) 0
l(rec4,por11,8) 0
l(rec4,por12,1) 0
l(rec4,por12,2) 0
l(rec4,por12,3) 0
l(rec4,por12,4) 0
l(rec4,por12,5) 0
l(rec4,por12,6) 0
l(rec4,por12,7) 0
l(rec4,por12,8) 0
l(rec4,por13,1) 0
l(rec4,por13,2) 0
l(rec4,por13,3) 0
l(rec4,por13,4) 0
l(rec4,por13,5) 0
l(rec4,por13,6) 0
l(rec4,por13,7) 0
l(rec4,por13,8) 0
l(rec4,por14,1) 0
l(rec4,por14,2) 0
l(rec4,por14,3) 0
l(rec4,por14,4) 0
l(rec4,por14,5) 0
l(rec4,por14,6) 0
l(rec4,por14,7) 0
l(rec4,por14,8) 0
l(rec4,por15,1) 0
l(rec4,por15,2) 0
l(rec4,por15,3) 0
l(rec4,por15,4) 0
l(rec4,por15,5) 0
l(rec4,por15,6) 0
l(rec4,por15,7) 0
l(rec4,por15,8) 0
DCx(rec1,rec1) 0
DCy(rec1,rec1) 0
DCx(rec2,rec2) 0
DCy(rec2,rec2) 0
DCx(rec3,rec3) 0
DCy(rec3,rec3) 0
DCx(rec4,rec4) 0
DCy(rec4,rec4) 0
